TYPE : Vertex Cover
DIMENSION: 40
EDGE_DATA_SECTION:
0 6
0 8
0 19
0 21
0 23
0 24
0 25
0 28
0 29
0 32
0 33
1 2
1 4
1 8
1 9
1 10
1 19
1 23
1 24
1 30
1 39
2 3
2 4
2 15
2 19
2 27
2 31
2 35
2 39
3 10
3 18
3 19
3 24
3 27
3 31
4 8
4 9
4 17
4 18
4 27
4 32
5 11
5 12
5 13
5 17
5 18
5 23
5 34
6 14
6 27
6 31
6 39
7 14
7 19
7 21
7 22
7 25
7 29
7 36
7 37
8 9
8 14
8 22
8 30
8 39
9 11
9 15
9 16
9 21
9 25
9 28
9 30
9 34
9 35
10 14
10 17
10 19
10 20
10 26
10 28
10 29
10 34
10 35
11 15
11 21
11 22
11 25
12 14
12 20
12 34
12 35
12 36
12 37
13 16
13 23
13 24
13 25
13 30
13 37
14 20
14 27
14 28
14 29
14 39
15 26
15 28
15 29
15 31
15 33
15 35
16 19
16 25
16 29
16 34
16 36
16 37
17 20
17 21
17 28
17 36
17 37
18 19
18 22
18 26
18 27
18 32
18 33
18 38
19 20
19 27
19 32
19 37
19 38
19 39
20 34
20 36
20 37
20 38
21 24
21 25
21 27
21 29
22 24
22 35
22 37
22 39
23 24
23 31
23 32
23 38
24 26
24 27
24 33
24 37
25 30
25 32
25 33
25 39
26 29
26 35
27 29
27 30
27 34
27 35
28 31
28 32
28 35
29 30
29 33
29 36
30 39
31 33
31 35
31 37
31 38
32 35
32 37
33 35
34 39
35 39
-1
VERTEX_DEGREE:
11.0 10.0 9.0 7.0 8.0 7.0 5.0 8.0 8.0 12.0 11.0 6.0 7.0 7.0 10.0 9.0 8.0 8.0 10.0 14.0 9.0 9.0 8.0 8.0 11.0 11.0 6.0 13.0 9.0 12.0 8.0 10.0 9.0 8.0 8.0 13.0 6.0 11.0 5.0 11.0
VERTEX_COVER:
0 1 2 5 8 9 10 12 13 14 15 17 18 19 21 22 24 25 27 29 31 32 34 35 36 37 38 39
EOF
